# Solution for model micodag
# Objective value = 2.8726024417538859e+01
s_0_1 0
s_1_0 0
s_0_2 0
s_2_0 4.3452991046373679e-01
s_1_2 0
s_2_1 2.4298726727361597e-01
s_1_3 0
s_3_1 2.5688208814092217e-01
s_1_7 0
s_7_1 0
s_1_9 0
s_9_1 0
s_1_12 0
s_12_1 8.7722473600677020e-01
s_1_13 0
s_13_1 3.2681459735155549e-01
s_1_22 0
s_22_1 6.2063407588174968e-01
s_2_3 0
s_3_2 6.5815373920827849e+00
s_2_4 0
s_4_2 6.5815373920827849e+00
s_2_6 0
s_6_2 6.5815373920827849e+00
s_2_8 0
s_8_2 6.5815373920827849e+00
s_2_15 0
s_15_2 0
s_2_17 0
s_17_2 6.5815373920827849e+00
s_2_18 0
s_18_2 6.5815373920827849e+00
s_2_21 0
s_21_2 6.5815373920827849e+00
s_3_4 0
s_4_3 3.7136784713914839e-01
s_3_6 0
s_6_3 1.9816928479069773e-01
s_3_7 0
s_7_3 0
s_3_8 0
s_8_3 2.6399101894528254e-01
s_3_9 0
s_9_3 6.2818071527136432e-01
s_3_12 0
s_12_3 0
s_3_13 0
s_13_3 3.7777764119682367e-01
s_3_15 0
s_15_3 0
s_3_17 0
s_17_3 1.2914928120350879e+00
s_3_18 0
s_18_3 7.9698301195294619e-01
s_3_26 0
s_26_3 7.3634467537267234e-01
s_4_5 2.6939331056185178e-01
s_5_4 0
s_4_6 6.5815373920827849e+00
s_6_4 0
s_4_7 0
s_7_4 0
s_4_8 0
s_8_4 0
s_4_10 0
s_10_4 0
s_4_11 0
s_11_4 6.5815373920827849e+00
s_4_14 0
s_14_4 0
s_4_15 0
s_15_4 0
s_4_16 0
s_16_4 6.5815373920827849e+00
s_4_23 0
s_23_4 0
s_4_24 0
s_24_4 6.5815373920827849e+00
s_5_6 0
s_6_5 4.1137914229537564e-01
s_5_7 0
s_7_5 0.672231278304559
s_5_14 0
s_14_5 5.7392581836796008e-01
s_6_7 0
s_7_6 0
s_6_8 0
s_8_6 6.5815373920827849e+00
s_6_19 0
s_19_6 0
s_6_20 0
s_20_6 6.5815373920827849e+00
s_6_22 0
s_22_6 0
s_6_23 0
s_23_6 6.5815373920827849e+00
s_7_8 0
s_8_7 0
s_7_9 0
s_9_7 6.5815373920827849e+00
s_7_10 0
s_10_7 6.5815373920827849e+00
s_7_11 0
s_11_7 6.5815373920827849e+00
s_7_19 0
s_19_7 0
s_7_20 0
s_20_7 6.5815373920827849e+00
s_7_22 0
s_22_7 6.5815373920827849e+00
s_7_25 0
s_25_7 6.5815373920827849e+00
s_8_10 0
s_10_8 0
s_8_11 0
s_11_8 5.6794028673225760e-01
s_8_14 0
s_14_8 0
s_8_15 0
s_15_8 0
s_8_16 0
s_16_8 4.0534025532979712e-01
s_8_23 0
s_23_8 0
s_8_24 0
s_24_8 4.1262395431841892e-01
s_9_12 0
s_12_9 7.2200285898382877e-01
s_10_14 0
s_14_10 0
s_10_15 0
s_15_10 0
s_10_16 0
s_16_10 4.4236953172854587e-01
s_12_13 0
s_13_12 6.5815373920827849e+00
s_12_26 0
s_26_12 6.5815373920827849e+00
s_14_15 0
s_15_14 0.300005742225391
s_14_16 0
s_16_14 2.1731815973514745e-01
s_14_19 0
s_19_14 4.0376166224442489e-01
s_15_16 0
s_16_15 6.5815373920827849e+00
s_15_17 0
s_17_15 6.5815373920827849e+00
s_15_18 0
s_18_15 6.5815373920827849e+00
s_19_20 0
s_20_19 6.5706818585801585e-01
s_22_23 0
s_23_22 1.1475829812044651e+00
s_23_24 0
s_24_23 6.5815373920827849e+00
s_0_0 1.1432498826997177e+00
s_1_1 0.967733078432893
s_2_2 6.5815373920827849e+00
s_3_3 5.8160852012586783e-01
s_4_4 6.5815373920827849e+00
s_5_5 1.9057491498372654e+00
s_6_6 6.5815373920827849e+00
s_7_7 6.5815373920827849e+00
s_8_8 6.9272607062192293e-01
s_9_9 1.0931221872186168e+00
s_10_10 2.2838932668459098e+00
s_11_11 1.0175158809414713e+00
s_12_12 6.5815373920827849e+00
s_13_13 9.8508671633043132e-01
s_14_14 9.6467716040334839e-01
s_15_15 6.5815373920827849e+00
s_16_16 5.7772222616359148e-01
s_17_17 2.1391302136402457e+00
s_18_18 2.3275753098369414e+00
s_19_19 6.3505311372679252e-01
s_20_20 1.0719390323931925e+00
s_21_21 6.1049577182595272e-01
s_22_22 1.0427643183453608e+00
s_23_23 6.5815373920827849e+00
s_24_24 6.4475106265672988e-01
s_25_25 9.4888161532333370e-01
s_26_26 2.1478469539575658e+00
Gamma_0_0 1.0692286391131314e+00
Gamma_0_1 0
Gamma_0_2 0
Gamma_0_3 0
Gamma_0_4 0
Gamma_0_5 0
Gamma_0_6 0
Gamma_0_7 0
Gamma_0_8 0
Gamma_0_9 0
Gamma_0_10 0
Gamma_0_11 0
Gamma_0_12 0
Gamma_0_13 0
Gamma_0_14 0
Gamma_0_15 0
Gamma_0_16 0
Gamma_0_17 0
Gamma_0_18 0
Gamma_0_19 0
Gamma_0_20 0
Gamma_0_21 0
Gamma_0_22 0
Gamma_0_23 0
Gamma_0_24 0
Gamma_0_25 0
Gamma_0_26 0
Gamma_1_0 0
Gamma_1_1 9.8373425193641273e-01
Gamma_1_2 0
Gamma_1_3 0
Gamma_1_4 0
Gamma_1_5 0
Gamma_1_6 0
Gamma_1_7 0
Gamma_1_8 0
Gamma_1_9 0
Gamma_1_10 0
Gamma_1_11 0
Gamma_1_12 0
Gamma_1_13 0
Gamma_1_14 0
Gamma_1_15 0
Gamma_1_16 0
Gamma_1_17 0
Gamma_1_18 0
Gamma_1_19 0
Gamma_1_20 0
Gamma_1_21 0
Gamma_1_22 0
Gamma_1_23 0
Gamma_1_24 0
Gamma_1_25 0
Gamma_1_26 0
Gamma_2_0 -6.5918882762357156e-01
Gamma_2_1 4.9293738676795179e-01
Gamma_2_2 7.9635772860316878e-01
Gamma_2_3 0
Gamma_2_4 0
Gamma_2_5 0
Gamma_2_6 0
Gamma_2_7 0
Gamma_2_8 0
Gamma_2_9 0
Gamma_2_10 0
Gamma_2_11 0
Gamma_2_12 0
Gamma_2_13 0
Gamma_2_14 0
Gamma_2_15 0
Gamma_2_16 0
Gamma_2_17 0
Gamma_2_18 0
Gamma_2_19 0
Gamma_2_20 0
Gamma_2_21 0
Gamma_2_22 0
Gamma_2_23 0
Gamma_2_24 0
Gamma_2_25 0
Gamma_2_26 0
Gamma_3_0 0
Gamma_3_1 -5.0683536591374923e-01
Gamma_3_2 -0.609029706623105
Gamma_3_3 7.6263262461415082e-01
Gamma_3_4 0
Gamma_3_5 0
Gamma_3_6 0
Gamma_3_7 0
Gamma_3_8 0
Gamma_3_9 0
Gamma_3_10 0
Gamma_3_11 0
Gamma_3_12 0
Gamma_3_13 0
Gamma_3_14 0
Gamma_3_15 0
Gamma_3_16 0
Gamma_3_17 0
Gamma_3_18 0
Gamma_3_19 0
Gamma_3_20 0
Gamma_3_21 0
Gamma_3_22 0
Gamma_3_23 0
Gamma_3_24 0
Gamma_3_25 0
Gamma_3_26 0
Gamma_4_0 0
Gamma_4_1 0
Gamma_4_2 -5.3200718893157650e-01
Gamma_4_3 -6.0939957920821575e-01
Gamma_4_4 1.26741388422745
Gamma_4_5 5.1903112677550778e-01
Gamma_4_6 8.9852112140639262e-01
Gamma_4_7 0
Gamma_4_8 0
Gamma_4_9 0
Gamma_4_10 0
Gamma_4_11 0
Gamma_4_12 0
Gamma_4_13 0
Gamma_4_14 0
Gamma_4_15 0
Gamma_4_16 0
Gamma_4_17 0
Gamma_4_18 0
Gamma_4_19 0
Gamma_4_20 0
Gamma_4_21 0
Gamma_4_22 0
Gamma_4_23 0
Gamma_4_24 0
Gamma_4_25 0
Gamma_4_26 0
Gamma_5_0 0
Gamma_5_1 0
Gamma_5_2 0
Gamma_5_3 0
Gamma_5_4 0
Gamma_5_5 1.3804887358603350e+00
Gamma_5_6 0
Gamma_5_7 0
Gamma_5_8 0
Gamma_5_9 0
Gamma_5_10 0
Gamma_5_11 0
Gamma_5_12 0
Gamma_5_13 0
Gamma_5_14 0
Gamma_5_15 0
Gamma_5_16 0
Gamma_5_17 0
Gamma_5_18 0
Gamma_5_19 0
Gamma_5_20 0
Gamma_5_21 0
Gamma_5_22 0
Gamma_5_23 0
Gamma_5_24 0
Gamma_5_25 0
Gamma_5_26 0
Gamma_6_0 0
Gamma_6_1 0
Gamma_6_2 5.5182228117180543e-01
Gamma_6_3 4.4516208822259318e-01
Gamma_6_4 0
Gamma_6_5 6.4138844883220170e-01
Gamma_6_6 1.0401536349761153e+00
Gamma_6_7 0
Gamma_6_8 0
Gamma_6_9 0
Gamma_6_10 0
Gamma_6_11 0
Gamma_6_12 0
Gamma_6_13 0
Gamma_6_14 0
Gamma_6_15 0
Gamma_6_16 0
Gamma_6_17 0
Gamma_6_18 0
Gamma_6_19 0
Gamma_6_20 0
Gamma_6_21 0
Gamma_6_22 0
Gamma_6_23 0
Gamma_6_24 0
Gamma_6_25 0
Gamma_6_26 0
Gamma_7_0 0
Gamma_7_1 0
Gamma_7_2 0
Gamma_7_3 0
Gamma_7_4 0
Gamma_7_5 8.1989711446288172e-01
Gamma_7_6 0
Gamma_7_7 1.0158013707775531e+00
Gamma_7_8 0
Gamma_7_9 0
Gamma_7_10 0
Gamma_7_11 0
Gamma_7_12 0
Gamma_7_13 0
Gamma_7_14 0
Gamma_7_15 0
Gamma_7_16 0
Gamma_7_17 0
Gamma_7_18 0
Gamma_7_19 0
Gamma_7_20 0
Gamma_7_21 0
Gamma_7_22 0
Gamma_7_23 0
Gamma_7_24 0
Gamma_7_25 0
Gamma_7_26 0
Gamma_8_0 0
Gamma_8_1 0
Gamma_8_2 -5.0890904260956049e-01
Gamma_8_3 -0.513800563395258
Gamma_8_4 0
Gamma_8_5 0
Gamma_8_6 -6.7641578895351262e-01
Gamma_8_7 0
Gamma_8_8 8.3230167044282932e-01
Gamma_8_9 0
Gamma_8_10 0
Gamma_8_11 0
Gamma_8_12 0
Gamma_8_13 0
Gamma_8_14 0
Gamma_8_15 0
Gamma_8_16 0
Gamma_8_17 0
Gamma_8_18 0
Gamma_8_19 0
Gamma_8_20 0
Gamma_8_21 0
Gamma_8_22 0
Gamma_8_23 0
Gamma_8_24 0
Gamma_8_25 0
Gamma_8_26 0
Gamma_9_0 0
Gamma_9_1 0
Gamma_9_2 0
Gamma_9_3 -0.792578523094945
Gamma_9_4 0
Gamma_9_5 0
Gamma_9_6 0
Gamma_9_7 -6.6857223934974852e-01
Gamma_9_8 0
Gamma_9_9 1.0455248381643627e+00
Gamma_9_10 0
Gamma_9_11 0
Gamma_9_12 0
Gamma_9_13 0
Gamma_9_14 0
Gamma_9_15 0
Gamma_9_16 0
Gamma_9_17 0
Gamma_9_18 0
Gamma_9_19 0
Gamma_9_20 0
Gamma_9_21 0
Gamma_9_22 0
Gamma_9_23 0
Gamma_9_24 0
Gamma_9_25 0
Gamma_9_26 0
Gamma_10_0 0
Gamma_10_1 0
Gamma_10_2 0
Gamma_10_3 0
Gamma_10_4 0
Gamma_10_5 0
Gamma_10_6 0
Gamma_10_7 1.2555304507533580e+00
Gamma_10_8 0
Gamma_10_9 0
Gamma_10_10 1.5112555266552079e+00
Gamma_10_11 0
Gamma_10_12 0
Gamma_10_13 0
Gamma_10_14 0
Gamma_10_15 0
Gamma_10_16 0
Gamma_10_17 0
Gamma_10_18 0
Gamma_10_19 0
Gamma_10_20 0
Gamma_10_21 0
Gamma_10_22 0
Gamma_10_23 0
Gamma_10_24 0
Gamma_10_25 0
Gamma_10_26 0
Gamma_11_0 0
Gamma_11_1 0
Gamma_11_2 0
Gamma_11_3 0
Gamma_11_4 6.0056824020811439e-01
Gamma_11_5 0
Gamma_11_6 0
Gamma_11_7 -0.595872515645625
Gamma_11_8 -0.753618130575598
Gamma_11_9 0
Gamma_11_10 0
Gamma_11_11 1.0087199219513177e+00
Gamma_11_12 0
Gamma_11_13 0
Gamma_11_14 0
Gamma_11_15 0
Gamma_11_16 0
Gamma_11_17 0
Gamma_11_18 0
Gamma_11_19 0
Gamma_11_20 0
Gamma_11_21 0
Gamma_11_22 0
Gamma_11_23 0
Gamma_11_24 0
Gamma_11_25 0
Gamma_11_26 0
Gamma_12_0 0
Gamma_12_1 9.3660276318553071e-01
Gamma_12_2 0
Gamma_12_3 0
Gamma_12_4 0
Gamma_12_5 0
Gamma_12_6 0
Gamma_12_7 0
Gamma_12_8 0
Gamma_12_9 -8.4970751378567277e-01
Gamma_12_10 0
Gamma_12_11 0
Gamma_12_12 1.3972552794657715e+00
Gamma_12_13 0
Gamma_12_14 0
Gamma_12_15 0
Gamma_12_16 0
Gamma_12_17 0
Gamma_12_18 0
Gamma_12_19 0
Gamma_12_20 0
Gamma_12_21 0
Gamma_12_22 0
Gamma_12_23 0
Gamma_12_24 0
Gamma_12_25 0
Gamma_12_26 0
Gamma_13_0 0
Gamma_13_1 -5.7167700439282743e-01
Gamma_13_2 0
Gamma_13_3 6.1463618604571679e-01
Gamma_13_4 0
Gamma_13_5 0
Gamma_13_6 0
Gamma_13_7 0
Gamma_13_8 0
Gamma_13_9 0
Gamma_13_10 0
Gamma_13_11 0
Gamma_13_12 6.1757440436955013e-01
Gamma_13_13 0.992515348158623
Gamma_13_14 0
Gamma_13_15 0
Gamma_13_16 0
Gamma_13_17 0
Gamma_13_18 0
Gamma_13_19 0
Gamma_13_20 0
Gamma_13_21 0
Gamma_13_22 0
Gamma_13_23 0
Gamma_13_24 0
Gamma_13_25 0
Gamma_13_26 0
Gamma_14_0 0
Gamma_14_1 0
Gamma_14_2 0
Gamma_14_3 0
Gamma_14_4 0
Gamma_14_5 7.5757891890413775e-01
Gamma_14_6 0
Gamma_14_7 0
Gamma_14_8 0
Gamma_14_9 0
Gamma_14_10 0
Gamma_14_11 0
Gamma_14_12 0
Gamma_14_13 0
Gamma_14_14 9.8217980044559516e-01
Gamma_14_15 0
Gamma_14_16 0
Gamma_14_17 0
Gamma_14_18 0
Gamma_14_19 0
Gamma_14_20 0
Gamma_14_21 0
Gamma_14_22 0
Gamma_14_23 0
Gamma_14_24 0
Gamma_14_25 0
Gamma_14_26 0
Gamma_15_0 0
Gamma_15_1 0
Gamma_15_2 0
Gamma_15_3 0
Gamma_15_4 0
Gamma_15_5 0
Gamma_15_6 0
Gamma_15_7 0
Gamma_15_8 0
Gamma_15_9 0
Gamma_15_10 0
Gamma_15_11 0
Gamma_15_12 0
Gamma_15_13 0
Gamma_15_14 -5.4772779939071281e-01
Gamma_15_15 9.6270492079686254e-01
Gamma_15_16 0
Gamma_15_17 0
Gamma_15_18 0
Gamma_15_19 0
Gamma_15_20 0
Gamma_15_21 0
Gamma_15_22 0
Gamma_15_23 0
Gamma_15_24 0
Gamma_15_25 0
Gamma_15_26 0
Gamma_16_0 0
Gamma_16_1 0
Gamma_16_2 0
Gamma_16_3 0
Gamma_16_4 -4.6425224822861544e-01
Gamma_16_5 0
Gamma_16_6 0
Gamma_16_7 0
Gamma_16_8 -6.3666337677755513e-01
Gamma_16_9 0
Gamma_16_10 0.665108661594891
Gamma_16_11 0
Gamma_16_12 0
Gamma_16_13 0
Gamma_16_14 -4.6617395866258904e-01
Gamma_16_15 -4.5543639125708413e-01
Gamma_16_16 7.6008040769618157e-01
Gamma_16_17 0
Gamma_16_18 0
Gamma_16_19 0
Gamma_16_20 0
Gamma_16_21 0
Gamma_16_22 0
Gamma_16_23 0
Gamma_16_24 0
Gamma_16_25 0
Gamma_16_26 0
Gamma_17_0 0
Gamma_17_1 0
Gamma_17_2 -1.1534668671214920e+00
Gamma_17_3 -1.1364386530011590e+00
Gamma_17_4 0
Gamma_17_5 0
Gamma_17_6 0
Gamma_17_7 0
Gamma_17_8 0
Gamma_17_9 0
Gamma_17_10 0
Gamma_17_11 0
Gamma_17_12 0
Gamma_17_13 0
Gamma_17_14 0
Gamma_17_15 -0.941294174510972
Gamma_17_16 0
Gamma_17_17 1.4625765667616333e+00
Gamma_17_18 0
Gamma_17_19 0
Gamma_17_20 0
Gamma_17_21 0
Gamma_17_22 0
Gamma_17_23 0
Gamma_17_24 0
Gamma_17_25 0
Gamma_17_26 0
Gamma_18_0 0
Gamma_18_1 0
Gamma_18_2 -8.2021882862668727e-01
Gamma_18_3 8.9273905031254619e-01
Gamma_18_4 0
Gamma_18_5 0
Gamma_18_6 0
Gamma_18_7 0
Gamma_18_8 0
Gamma_18_9 0
Gamma_18_10 0
Gamma_18_11 0
Gamma_18_12 0
Gamma_18_13 0
Gamma_18_14 0
Gamma_18_15 -1.1966709397183297e+00
Gamma_18_16 0
Gamma_18_17 0
Gamma_18_18 1.5256393118417411e+00
Gamma_18_19 0
Gamma_18_20 0
Gamma_18_21 0
Gamma_18_22 0
Gamma_18_23 0
Gamma_18_24 0
Gamma_18_25 0
Gamma_18_26 0
Gamma_19_0 0
Gamma_19_1 0
Gamma_19_2 0
Gamma_19_3 0
Gamma_19_4 0
Gamma_19_5 0
Gamma_19_6 0
Gamma_19_7 0
Gamma_19_8 0
Gamma_19_9 0
Gamma_19_10 0
Gamma_19_11 0
Gamma_19_12 0
Gamma_19_13 0
Gamma_19_14 6.3542242818807282e-01
Gamma_19_15 0
Gamma_19_16 0
Gamma_19_17 0
Gamma_19_18 0
Gamma_19_19 7.9690219834481180e-01
Gamma_19_20 0
Gamma_19_21 0
Gamma_19_22 0
Gamma_19_23 0
Gamma_19_24 0
Gamma_19_25 0
Gamma_19_26 0
Gamma_20_0 0
Gamma_20_1 0
Gamma_20_2 0
Gamma_20_3 0
Gamma_20_4 0
Gamma_20_5 0
Gamma_20_6 -0.657705283659072
Gamma_20_7 9.0028230093769679e-01
Gamma_20_8 0
Gamma_20_9 0
Gamma_20_10 0
Gamma_20_11 0
Gamma_20_12 0
Gamma_20_13 0
Gamma_20_14 0
Gamma_20_15 0
Gamma_20_16 0
Gamma_20_17 0
Gamma_20_18 0
Gamma_20_19 8.1059742527225920e-01
Gamma_20_20 1.0353448857232035e+00
Gamma_20_21 0
Gamma_20_22 0
Gamma_20_23 0
Gamma_20_24 0
Gamma_20_25 0
Gamma_20_26 0
Gamma_21_0 0
Gamma_21_1 0
Gamma_21_2 6.7243235836247184e-01
Gamma_21_3 0
Gamma_21_4 0
Gamma_21_5 0
Gamma_21_6 0
Gamma_21_7 0
Gamma_21_8 0
Gamma_21_9 0
Gamma_21_10 0
Gamma_21_11 0
Gamma_21_12 0
Gamma_21_13 0
Gamma_21_14 0
Gamma_21_15 0
Gamma_21_16 0
Gamma_21_17 0
Gamma_21_18 0
Gamma_21_19 0
Gamma_21_20 0
Gamma_21_21 7.8134228851762133e-01
Gamma_21_22 0
Gamma_21_23 0
Gamma_21_24 0
Gamma_21_25 0
Gamma_21_26 0
Gamma_22_0 0
Gamma_22_1 -7.8780332309641266e-01
Gamma_22_2 0
Gamma_22_3 0
Gamma_22_4 0
Gamma_22_5 0
Gamma_22_6 0
Gamma_22_7 -5.5671116150807320e-01
Gamma_22_8 0
Gamma_22_9 0
Gamma_22_10 0
Gamma_22_11 0
Gamma_22_12 0
Gamma_22_13 0
Gamma_22_14 0
Gamma_22_15 0
Gamma_22_16 0
Gamma_22_17 0
Gamma_22_18 0
Gamma_22_19 0
Gamma_22_20 0
Gamma_22_21 0
Gamma_22_22 1.0211583218802860e+00
Gamma_22_23 0
Gamma_22_24 0
Gamma_22_25 0
Gamma_22_26 0
Gamma_23_0 0
Gamma_23_1 0
Gamma_23_2 0
Gamma_23_3 0
Gamma_23_4 0
Gamma_23_5 0
Gamma_23_6 1.1193912446399463e+00
Gamma_23_7 0
Gamma_23_8 0
Gamma_23_9 0
Gamma_23_10 0
Gamma_23_11 0
Gamma_23_12 0
Gamma_23_13 0
Gamma_23_14 0
Gamma_23_15 0
Gamma_23_16 0
Gamma_23_17 0
Gamma_23_18 0
Gamma_23_19 0
Gamma_23_20 0
Gamma_23_21 0
Gamma_23_22 1.0712529958905441e+00
Gamma_23_23 1.3565362653267738e+00
Gamma_23_24 0
Gamma_23_25 0
Gamma_23_26 0
Gamma_24_0 0
Gamma_24_1 0
Gamma_24_2 0
Gamma_24_3 0
Gamma_24_4 -6.7101932020753574e-01
Gamma_24_5 0
Gamma_24_6 0
Gamma_24_7 0
Gamma_24_8 0.642358119991038
Gamma_24_9 0
Gamma_24_10 0
Gamma_24_11 0
Gamma_24_12 0
Gamma_24_13 0
Gamma_24_14 0
Gamma_24_15 0
Gamma_24_16 0
Gamma_24_17 0
Gamma_24_18 0
Gamma_24_19 0
Gamma_24_20 0
Gamma_24_21 0
Gamma_24_22 0
Gamma_24_23 6.3841579552097161e-01
Gamma_24_24 8.0296392363339109e-01
Gamma_24_25 0
Gamma_24_26 0
Gamma_25_0 0
Gamma_25_1 0
Gamma_25_2 0
Gamma_25_3 0
Gamma_25_4 0
Gamma_25_5 0
Gamma_25_6 0
Gamma_25_7 -5.7924529282065618e-01
Gamma_25_8 0
Gamma_25_9 0
Gamma_25_10 0
Gamma_25_11 0
Gamma_25_12 0
Gamma_25_13 0
Gamma_25_14 0
Gamma_25_15 0
Gamma_25_16 0
Gamma_25_17 0
Gamma_25_18 0
Gamma_25_19 0
Gamma_25_20 0
Gamma_25_21 0
Gamma_25_22 0
Gamma_25_23 0
Gamma_25_24 0
Gamma_25_25 9.7410554629533586e-01
Gamma_25_26 0
Gamma_26_0 0
Gamma_26_1 0
Gamma_26_2 0
Gamma_26_3 0.858105282219305
Gamma_26_4 0
Gamma_26_5 0
Gamma_26_6 0
Gamma_26_7 0
Gamma_26_8 0
Gamma_26_9 0
Gamma_26_10 0
Gamma_26_11 0
Gamma_26_12 1.1499292946582340e+00
Gamma_26_13 0
Gamma_26_14 0
Gamma_26_15 0
Gamma_26_16 0
Gamma_26_17 0
Gamma_26_18 0
Gamma_26_19 0
Gamma_26_20 0
Gamma_26_21 0
Gamma_26_22 0
Gamma_26_23 0
Gamma_26_24 0
Gamma_26_25 0
Gamma_26_26 1.4655534633569551e+00
psi_0 5
psi_1 5
psi_2 4
psi_3 3
psi_4 1
psi_5 4
psi_6 2
psi_7 3
psi_8 1
psi_9 2
psi_10 1
psi_11 0
psi_12 1
psi_13 0
psi_14 2
psi_15 1
psi_16 0
psi_17 0
psi_18 0
psi_19 1
psi_20 0
psi_21 0
psi_22 2
psi_23 1
psi_24 0
psi_25 0
psi_26 0
g_0_0 0
g_0_1 0
g_0_2 0
g_0_3 0
g_0_4 0
g_0_5 0
g_0_6 0
g_0_7 0
g_0_8 0
g_0_9 0
g_0_10 0
g_0_11 0
g_0_12 0
g_0_13 0
g_0_14 0
g_0_15 0
g_0_16 0
g_0_17 0
g_0_18 0
g_0_19 0
g_0_20 0
g_0_21 0
g_0_22 0
g_0_23 0
g_0_24 0
g_0_25 0
g_0_26 0
g_1_0 0
g_1_1 0
g_1_2 0
g_1_3 0
g_1_4 0
g_1_5 0
g_1_6 0
g_1_7 0
g_1_8 0
g_1_9 0
g_1_10 0
g_1_11 0
g_1_12 0
g_1_13 0
g_1_14 0
g_1_15 0
g_1_16 0
g_1_17 0
g_1_18 0
g_1_19 0
g_1_20 0
g_1_21 0
g_1_22 0
g_1_23 0
g_1_24 0
g_1_25 0
g_1_26 0
g_2_0 1
g_2_1 1
g_2_2 0
g_2_3 0
g_2_4 0
g_2_5 0
g_2_6 0
g_2_7 0
g_2_8 0
g_2_9 0
g_2_10 0
g_2_11 0
g_2_12 0
g_2_13 0
g_2_14 0
g_2_15 0
g_2_16 0
g_2_17 0
g_2_18 0
g_2_19 0
g_2_20 0
g_2_21 0
g_2_22 0
g_2_23 0
g_2_24 0
g_2_25 0
g_2_26 0
g_3_0 0
g_3_1 1
g_3_2 1
g_3_3 0
g_3_4 0
g_3_5 0
g_3_6 0
g_3_7 0
g_3_8 0
g_3_9 0
g_3_10 0
g_3_11 0
g_3_12 0
g_3_13 0
g_3_14 0
g_3_15 0
g_3_16 0
g_3_17 0
g_3_18 0
g_3_19 0
g_3_20 0
g_3_21 0
g_3_22 0
g_3_23 0
g_3_24 0
g_3_25 0
g_3_26 0
g_4_0 0
g_4_1 0
g_4_2 1
g_4_3 1
g_4_4 0
g_4_5 1
g_4_6 1
g_4_7 0
g_4_8 0
g_4_9 0
g_4_10 0
g_4_11 0
g_4_12 0
g_4_13 0
g_4_14 0
g_4_15 0
g_4_16 0
g_4_17 0
g_4_18 0
g_4_19 0
g_4_20 0
g_4_21 0
g_4_22 0
g_4_23 0
g_4_24 0
g_4_25 0
g_4_26 0
g_5_0 0
g_5_1 0
g_5_2 0
g_5_3 0
g_5_4 0
g_5_5 0
g_5_6 0
g_5_7 0
g_5_8 0
g_5_9 0
g_5_10 0
g_5_11 0
g_5_12 0
g_5_13 0
g_5_14 0
g_5_15 0
g_5_16 0
g_5_17 0
g_5_18 0
g_5_19 0
g_5_20 0
g_5_21 0
g_5_22 0
g_5_23 0
g_5_24 0
g_5_25 0
g_5_26 0
g_6_0 0
g_6_1 0
g_6_2 1
g_6_3 1
g_6_4 0
g_6_5 1
g_6_6 0
g_6_7 0
g_6_8 0
g_6_9 0
g_6_10 0
g_6_11 0
g_6_12 0
g_6_13 0
g_6_14 0
g_6_15 0
g_6_16 0
g_6_17 0
g_6_18 0
g_6_19 0
g_6_20 0
g_6_21 0
g_6_22 0
g_6_23 0
g_6_24 0
g_6_25 0
g_6_26 0
g_7_0 0
g_7_1 0
g_7_2 0
g_7_3 0
g_7_4 0
g_7_5 1
g_7_6 0
g_7_7 0
g_7_8 0
g_7_9 0
g_7_10 0
g_7_11 0
g_7_12 0
g_7_13 0
g_7_14 0
g_7_15 0
g_7_16 0
g_7_17 0
g_7_18 0
g_7_19 0
g_7_20 0
g_7_21 0
g_7_22 0
g_7_23 0
g_7_24 0
g_7_25 0
g_7_26 0
g_8_0 0
g_8_1 0
g_8_2 1
g_8_3 1
g_8_4 0
g_8_5 0
g_8_6 1
g_8_7 0
g_8_8 0
g_8_9 0
g_8_10 0
g_8_11 0
g_8_12 0
g_8_13 0
g_8_14 0
g_8_15 0
g_8_16 0
g_8_17 0
g_8_18 0
g_8_19 0
g_8_20 0
g_8_21 0
g_8_22 0
g_8_23 0
g_8_24 0
g_8_25 0
g_8_26 0
g_9_0 0
g_9_1 0
g_9_2 0
g_9_3 1
g_9_4 0
g_9_5 0
g_9_6 0
g_9_7 1
g_9_8 0
g_9_9 0
g_9_10 0
g_9_11 0
g_9_12 0
g_9_13 0
g_9_14 0
g_9_15 0
g_9_16 0
g_9_17 0
g_9_18 0
g_9_19 0
g_9_20 0
g_9_21 0
g_9_22 0
g_9_23 0
g_9_24 0
g_9_25 0
g_9_26 0
g_10_0 0
g_10_1 0
g_10_2 0
g_10_3 0
g_10_4 0
g_10_5 0
g_10_6 0
g_10_7 1
g_10_8 0
g_10_9 0
g_10_10 0
g_10_11 0
g_10_12 0
g_10_13 0
g_10_14 0
g_10_15 0
g_10_16 0
g_10_17 0
g_10_18 0
g_10_19 0
g_10_20 0
g_10_21 0
g_10_22 0
g_10_23 0
g_10_24 0
g_10_25 0
g_10_26 0
g_11_0 0
g_11_1 0
g_11_2 0
g_11_3 0
g_11_4 1
g_11_5 0
g_11_6 0
g_11_7 1
g_11_8 1
g_11_9 0
g_11_10 0
g_11_11 0
g_11_12 0
g_11_13 0
g_11_14 0
g_11_15 0
g_11_16 0
g_11_17 0
g_11_18 0
g_11_19 0
g_11_20 0
g_11_21 0
g_11_22 0
g_11_23 0
g_11_24 0
g_11_25 0
g_11_26 0
g_12_0 0
g_12_1 1
g_12_2 0
g_12_3 0
g_12_4 0
g_12_5 0
g_12_6 0
g_12_7 0
g_12_8 0
g_12_9 1
g_12_10 0
g_12_11 0
g_12_12 0
g_12_13 0
g_12_14 0
g_12_15 0
g_12_16 0
g_12_17 0
g_12_18 0
g_12_19 0
g_12_20 0
g_12_21 0
g_12_22 0
g_12_23 0
g_12_24 0
g_12_25 0
g_12_26 0
g_13_0 0
g_13_1 1
g_13_2 0
g_13_3 1
g_13_4 0
g_13_5 0
g_13_6 0
g_13_7 0
g_13_8 0
g_13_9 0
g_13_10 0
g_13_11 0
g_13_12 1
g_13_13 0
g_13_14 0
g_13_15 0
g_13_16 0
g_13_17 0
g_13_18 0
g_13_19 0
g_13_20 0
g_13_21 0
g_13_22 0
g_13_23 0
g_13_24 0
g_13_25 0
g_13_26 0
g_14_0 0
g_14_1 0
g_14_2 0
g_14_3 0
g_14_4 0
g_14_5 1
g_14_6 0
g_14_7 0
g_14_8 0
g_14_9 0
g_14_10 0
g_14_11 0
g_14_12 0
g_14_13 0
g_14_14 0
g_14_15 0
g_14_16 0
g_14_17 0
g_14_18 0
g_14_19 0
g_14_20 0
g_14_21 0
g_14_22 0
g_14_23 0
g_14_24 0
g_14_25 0
g_14_26 0
g_15_0 0
g_15_1 0
g_15_2 0
g_15_3 0
g_15_4 0
g_15_5 0
g_15_6 0
g_15_7 0
g_15_8 0
g_15_9 0
g_15_10 0
g_15_11 0
g_15_12 0
g_15_13 0
g_15_14 1
g_15_15 0
g_15_16 0
g_15_17 0
g_15_18 0
g_15_19 0
g_15_20 0
g_15_21 0
g_15_22 0
g_15_23 0
g_15_24 0
g_15_25 0
g_15_26 0
g_16_0 0
g_16_1 0
g_16_2 0
g_16_3 0
g_16_4 1
g_16_5 0
g_16_6 0
g_16_7 0
g_16_8 1
g_16_9 0
g_16_10 1
g_16_11 0
g_16_12 0
g_16_13 0
g_16_14 1
g_16_15 1
g_16_16 0
g_16_17 0
g_16_18 0
g_16_19 0
g_16_20 0
g_16_21 0
g_16_22 0
g_16_23 0
g_16_24 0
g_16_25 0
g_16_26 0
g_17_0 0
g_17_1 0
g_17_2 1
g_17_3 1
g_17_4 0
g_17_5 0
g_17_6 0
g_17_7 0
g_17_8 0
g_17_9 0
g_17_10 0
g_17_11 0
g_17_12 0
g_17_13 0
g_17_14 0
g_17_15 1
g_17_16 0
g_17_17 0
g_17_18 0
g_17_19 0
g_17_20 0
g_17_21 0
g_17_22 0
g_17_23 0
g_17_24 0
g_17_25 0
g_17_26 0
g_18_0 0
g_18_1 0
g_18_2 1
g_18_3 1
g_18_4 0
g_18_5 0
g_18_6 0
g_18_7 0
g_18_8 0
g_18_9 0
g_18_10 0
g_18_11 0
g_18_12 0
g_18_13 0
g_18_14 0
g_18_15 1
g_18_16 0
g_18_17 0
g_18_18 0
g_18_19 0
g_18_20 0
g_18_21 0
g_18_22 0
g_18_23 0
g_18_24 0
g_18_25 0
g_18_26 0
g_19_0 0
g_19_1 0
g_19_2 0
g_19_3 0
g_19_4 0
g_19_5 0
g_19_6 0
g_19_7 0
g_19_8 0
g_19_9 0
g_19_10 0
g_19_11 0
g_19_12 0
g_19_13 0
g_19_14 1
g_19_15 0
g_19_16 0
g_19_17 0
g_19_18 0
g_19_19 0
g_19_20 0
g_19_21 0
g_19_22 0
g_19_23 0
g_19_24 0
g_19_25 0
g_19_26 0
g_20_0 0
g_20_1 0
g_20_2 0
g_20_3 0
g_20_4 0
g_20_5 0
g_20_6 1
g_20_7 1
g_20_8 0
g_20_9 0
g_20_10 0
g_20_11 0
g_20_12 0
g_20_13 0
g_20_14 0
g_20_15 0
g_20_16 0
g_20_17 0
g_20_18 0
g_20_19 1
g_20_20 0
g_20_21 0
g_20_22 0
g_20_23 0
g_20_24 0
g_20_25 0
g_20_26 0
g_21_0 0
g_21_1 0
g_21_2 1
g_21_3 0
g_21_4 0
g_21_5 0
g_21_6 0
g_21_7 0
g_21_8 0
g_21_9 0
g_21_10 0
g_21_11 0
g_21_12 0
g_21_13 0
g_21_14 0
g_21_15 0
g_21_16 0
g_21_17 0
g_21_18 0
g_21_19 0
g_21_20 0
g_21_21 0
g_21_22 0
g_21_23 0
g_21_24 0
g_21_25 0
g_21_26 0
g_22_0 0
g_22_1 1
g_22_2 0
g_22_3 0
g_22_4 0
g_22_5 0
g_22_6 0
g_22_7 1
g_22_8 0
g_22_9 0
g_22_10 0
g_22_11 0
g_22_12 0
g_22_13 0
g_22_14 0
g_22_15 0
g_22_16 0
g_22_17 0
g_22_18 0
g_22_19 0
g_22_20 0
g_22_21 0
g_22_22 0
g_22_23 0
g_22_24 0
g_22_25 0
g_22_26 0
g_23_0 0
g_23_1 0
g_23_2 0
g_23_3 0
g_23_4 0
g_23_5 0
g_23_6 1
g_23_7 0
g_23_8 0
g_23_9 0
g_23_10 0
g_23_11 0
g_23_12 0
g_23_13 0
g_23_14 0
g_23_15 0
g_23_16 0
g_23_17 0
g_23_18 0
g_23_19 0
g_23_20 0
g_23_21 0
g_23_22 1
g_23_23 0
g_23_24 0
g_23_25 0
g_23_26 0
g_24_0 0
g_24_1 0
g_24_2 0
g_24_3 0
g_24_4 1
g_24_5 0
g_24_6 0
g_24_7 0
g_24_8 1
g_24_9 0
g_24_10 0
g_24_11 0
g_24_12 0
g_24_13 0
g_24_14 0
g_24_15 0
g_24_16 0
g_24_17 0
g_24_18 0
g_24_19 0
g_24_20 0
g_24_21 0
g_24_22 0
g_24_23 1
g_24_24 0
g_24_25 0
g_24_26 0
g_25_0 0
g_25_1 0
g_25_2 0
g_25_3 0
g_25_4 0
g_25_5 0
g_25_6 0
g_25_7 1
g_25_8 0
g_25_9 0
g_25_10 0
g_25_11 0
g_25_12 0
g_25_13 0
g_25_14 0
g_25_15 0
g_25_16 0
g_25_17 0
g_25_18 0
g_25_19 0
g_25_20 0
g_25_21 0
g_25_22 0
g_25_23 0
g_25_24 0
g_25_25 0
g_25_26 0
g_26_0 0
g_26_1 0
g_26_2 0
g_26_3 1
g_26_4 0
g_26_5 0
g_26_6 0
g_26_7 0
g_26_8 0
g_26_9 0
g_26_10 0
g_26_11 0
g_26_12 1
g_26_13 0
g_26_14 0
g_26_15 0
g_26_16 0
g_26_17 0
g_26_18 0
g_26_19 0
g_26_20 0
g_26_21 0
g_26_22 0
g_26_23 0
g_26_24 0
g_26_25 0
g_26_26 0
T_0 -0.13387498095355
T_1 3.2798975150882370e-02
T_2 4.5541357259652671e-01
T_3 5.4195770341024740e-01
T_4 -4.7395702547433416e-01
T_5 -6.4487518578212644e-01
T_6 -7.8736856362908725e-02
T_7 -3.1355657680492754e-02
T_8 0.367120638423998
T_9 -8.9037993631208678e-02
T_10 -0.825881559898832
T_11 -1.7364246017706364e-02
T_12 -6.6901959525901589e-01
T_13 1.5025604801380155e-02
T_14 3.5961782421907174e-02
T_15 7.6016661514358930e-02
T_16 0.548662103395813
T_17 -7.6039930418954782e-01
T_18 -8.4482708618136826e-01
T_19 4.5404663992313488e-01
T_20 -6.9469188263752812e-02
T_21 4.9348391121137070e-01
T_22 -4.1875185331605280e-02
T_23 -6.0986917448583711e-01
T_24 4.3889098605340848e-01
T_25 5.2471234915230980e-02
T_26 -0.764465923622879
